&CONTROL
  calculation = 'bands'
  etot_conv_thr =   3.0000000000d-05
  forc_conv_thr =   1.0000000000d-04
  outdir = './outdir'
  prefix = 'MoTe2'
  pseudo_dir = './'
  verbosity = 'high'
/
&SYSTEM
  degauss =   1.4699723600d-02
  ecutrho =   320
  ecutwfc =   80
  ibrav = 4
  a = 3.550484715
  c = 17.93199885
  nat = 3
  ntyp = 2
  nbnd = 46
/
&ELECTRONS
  conv_thr = 6.0000000000d-10
  electron_maxstep = 200
  mixing_beta = 0.7
/
ATOMIC_SPECIES
Mo     95.96 Mo.upf
Te     127.6 Te.upf

ATOMIC_POSITIONS crystal
Te            0.3333333300        0.6666666700        0.8984529689
Te            0.3333333300        0.6666666700        0.1015470311
Mo           -0.0000000000       -0.0000000000        0.0000000000

K_POINTS crystal
470
    0.0000000000     0.0000000000     0.0000000000 1
    0.0128205128     0.0000000000     0.0000000000 1
    0.0256410256     0.0000000000     0.0000000000 1
    0.0384615385     0.0000000000     0.0000000000 1
    0.0512820513     0.0000000000     0.0000000000 1
    0.0641025641     0.0000000000     0.0000000000 1
    0.0769230769     0.0000000000     0.0000000000 1
    0.0897435897     0.0000000000     0.0000000000 1
    0.1025641026     0.0000000000     0.0000000000 1
    0.1153846154     0.0000000000     0.0000000000 1
    0.1282051282     0.0000000000     0.0000000000 1
    0.1410256410     0.0000000000     0.0000000000 1
    0.1538461538     0.0000000000     0.0000000000 1
    0.1666666667     0.0000000000     0.0000000000 1
    0.1794871795     0.0000000000     0.0000000000 1
    0.1923076923     0.0000000000     0.0000000000 1
    0.2051282051     0.0000000000     0.0000000000 1
    0.2179487179     0.0000000000     0.0000000000 1
    0.2307692308     0.0000000000     0.0000000000 1
    0.2435897436     0.0000000000     0.0000000000 1
    0.2564102564     0.0000000000     0.0000000000 1
    0.2692307692     0.0000000000     0.0000000000 1
    0.2820512821     0.0000000000     0.0000000000 1
    0.2948717949     0.0000000000     0.0000000000 1
    0.3076923077     0.0000000000     0.0000000000 1
    0.3205128205     0.0000000000     0.0000000000 1
    0.3333333333     0.0000000000     0.0000000000 1
    0.3461538462     0.0000000000     0.0000000000 1
    0.3589743590     0.0000000000     0.0000000000 1
    0.3717948718     0.0000000000     0.0000000000 1
    0.3846153846     0.0000000000     0.0000000000 1
    0.3974358974     0.0000000000     0.0000000000 1
    0.4102564103     0.0000000000     0.0000000000 1
    0.4230769231     0.0000000000     0.0000000000 1
    0.4358974359     0.0000000000     0.0000000000 1
    0.4487179487     0.0000000000     0.0000000000 1
    0.4615384615     0.0000000000     0.0000000000 1
    0.4743589744     0.0000000000     0.0000000000 1
    0.4871794872     0.0000000000     0.0000000000 1
    0.5000000000     0.0000000000     0.0000000000 1
    0.4924242424     0.0151515152     0.0000000000 1
    0.4848484848     0.0303030303     0.0000000000 1
    0.4772727273     0.0454545455     0.0000000000 1
    0.4696969697     0.0606060606     0.0000000000 1
    0.4621212121     0.0757575758     0.0000000000 1
    0.4545454545     0.0909090909     0.0000000000 1
    0.4469696970     0.1060606061     0.0000000000 1
    0.4393939394     0.1212121212     0.0000000000 1
    0.4318181818     0.1363636364     0.0000000000 1
    0.4242424242     0.1515151515     0.0000000000 1
    0.4166666667     0.1666666667     0.0000000000 1
    0.4090909091     0.1818181818     0.0000000000 1
    0.4015151515     0.1969696970     0.0000000000 1
    0.3939393939     0.2121212121     0.0000000000 1
    0.3863636364     0.2272727273     0.0000000000 1
    0.3787878788     0.2424242424     0.0000000000 1
    0.3712121212     0.2575757576     0.0000000000 1
    0.3636363636     0.2727272727     0.0000000000 1
    0.3560606061     0.2878787879     0.0000000000 1
    0.3484848485     0.3030303030     0.0000000000 1
    0.3409090909     0.3181818182     0.0000000000 1
    0.3333333333     0.3333333333     0.0000000000 1
    0.3260869565     0.3260869565     0.0000000000 1
    0.3188405797     0.3188405797     0.0000000000 1
    0.3115942029     0.3115942029     0.0000000000 1
    0.3043478261     0.3043478261     0.0000000000 1
    0.2971014493     0.2971014493     0.0000000000 1
    0.2898550725     0.2898550725     0.0000000000 1
    0.2826086957     0.2826086957     0.0000000000 1
    0.2753623188     0.2753623188     0.0000000000 1
    0.2681159420     0.2681159420     0.0000000000 1
    0.2608695652     0.2608695652     0.0000000000 1
    0.2536231884     0.2536231884     0.0000000000 1
    0.2463768116     0.2463768116     0.0000000000 1
    0.2391304348     0.2391304348     0.0000000000 1
    0.2318840580     0.2318840580     0.0000000000 1
    0.2246376812     0.2246376812     0.0000000000 1
    0.2173913043     0.2173913043     0.0000000000 1
    0.2101449275     0.2101449275     0.0000000000 1
    0.2028985507     0.2028985507     0.0000000000 1
    0.1956521739     0.1956521739     0.0000000000 1
    0.1884057971     0.1884057971     0.0000000000 1
    0.1811594203     0.1811594203     0.0000000000 1
    0.1739130435     0.1739130435     0.0000000000 1
    0.1666666667     0.1666666667     0.0000000000 1
    0.1594202899     0.1594202899     0.0000000000 1
    0.1521739130     0.1521739130     0.0000000000 1
    0.1449275362     0.1449275362     0.0000000000 1
    0.1376811594     0.1376811594     0.0000000000 1
    0.1304347826     0.1304347826     0.0000000000 1
    0.1231884058     0.1231884058     0.0000000000 1
    0.1159420290     0.1159420290     0.0000000000 1
    0.1086956522     0.1086956522     0.0000000000 1
    0.1014492754     0.1014492754     0.0000000000 1
    0.0942028986     0.0942028986     0.0000000000 1
    0.0869565217     0.0869565217     0.0000000000 1
    0.0797101449     0.0797101449     0.0000000000 1
    0.0724637681     0.0724637681     0.0000000000 1
    0.0652173913     0.0652173913     0.0000000000 1
    0.0579710145     0.0579710145     0.0000000000 1
    0.0507246377     0.0507246377     0.0000000000 1
    0.0434782609     0.0434782609     0.0000000000 1
    0.0362318841     0.0362318841     0.0000000000 1
    0.0289855072     0.0289855072     0.0000000000 1
    0.0217391304     0.0217391304     0.0000000000 1
    0.0144927536     0.0144927536     0.0000000000 1
    0.0072463768     0.0072463768     0.0000000000 1
    0.0000000000     0.0000000000     0.0000000000 1
    0.0000000000     0.0000000000     0.0833333333 1
    0.0000000000     0.0000000000     0.1666666667 1
    0.0000000000     0.0000000000     0.2500000000 1
    0.0000000000     0.0000000000     0.3333333333 1
    0.0000000000     0.0000000000     0.4166666667 1
    0.0000000000     0.0000000000     0.5000000000 1
    0.0128205128     0.0000000000     0.5000000000 1
    0.0256410256     0.0000000000     0.5000000000 1
    0.0384615385     0.0000000000     0.5000000000 1
    0.0512820513     0.0000000000     0.5000000000 1
    0.0641025641     0.0000000000     0.5000000000 1
    0.0769230769     0.0000000000     0.5000000000 1
    0.0897435897     0.0000000000     0.5000000000 1
    0.1025641026     0.0000000000     0.5000000000 1
    0.1153846154     0.0000000000     0.5000000000 1
    0.1282051282     0.0000000000     0.5000000000 1
    0.1410256410     0.0000000000     0.5000000000 1
    0.1538461538     0.0000000000     0.5000000000 1
    0.1666666667     0.0000000000     0.5000000000 1
    0.1794871795     0.0000000000     0.5000000000 1
    0.1923076923     0.0000000000     0.5000000000 1
    0.2051282051     0.0000000000     0.5000000000 1
    0.2179487179     0.0000000000     0.5000000000 1
    0.2307692308     0.0000000000     0.5000000000 1
    0.2435897436     0.0000000000     0.5000000000 1
    0.2564102564     0.0000000000     0.5000000000 1
    0.2692307692     0.0000000000     0.5000000000 1
    0.2820512821     0.0000000000     0.5000000000 1
    0.2948717949     0.0000000000     0.5000000000 1
    0.3076923077     0.0000000000     0.5000000000 1
    0.3205128205     0.0000000000     0.5000000000 1
    0.3333333333     0.0000000000     0.5000000000 1
    0.3461538462     0.0000000000     0.5000000000 1
    0.3589743590     0.0000000000     0.5000000000 1
    0.3717948718     0.0000000000     0.5000000000 1
    0.3846153846     0.0000000000     0.5000000000 1
    0.3974358974     0.0000000000     0.5000000000 1
    0.4102564103     0.0000000000     0.5000000000 1
    0.4230769231     0.0000000000     0.5000000000 1
    0.4358974359     0.0000000000     0.5000000000 1
    0.4487179487     0.0000000000     0.5000000000 1
    0.4615384615     0.0000000000     0.5000000000 1
    0.4743589744     0.0000000000     0.5000000000 1
    0.4871794872     0.0000000000     0.5000000000 1
    0.5000000000     0.0000000000     0.5000000000 1
    0.4924242424     0.0151515152     0.5000000000 1
    0.4848484848     0.0303030303     0.5000000000 1
    0.4772727273     0.0454545455     0.5000000000 1
    0.4696969697     0.0606060606     0.5000000000 1
    0.4621212121     0.0757575758     0.5000000000 1
    0.4545454545     0.0909090909     0.5000000000 1
    0.4469696970     0.1060606061     0.5000000000 1
    0.4393939394     0.1212121212     0.5000000000 1
    0.4318181818     0.1363636364     0.5000000000 1
    0.4242424242     0.1515151515     0.5000000000 1
    0.4166666667     0.1666666667     0.5000000000 1
    0.4090909091     0.1818181818     0.5000000000 1
    0.4015151515     0.1969696970     0.5000000000 1
    0.3939393939     0.2121212121     0.5000000000 1
    0.3863636364     0.2272727273     0.5000000000 1
    0.3787878788     0.2424242424     0.5000000000 1
    0.3712121212     0.2575757576     0.5000000000 1
    0.3636363636     0.2727272727     0.5000000000 1
    0.3560606061     0.2878787879     0.5000000000 1
    0.3484848485     0.3030303030     0.5000000000 1
    0.3409090909     0.3181818182     0.5000000000 1
    0.3333333333     0.3333333333     0.5000000000 1
    0.3260869565     0.3260869565     0.5000000000 1
    0.3188405797     0.3188405797     0.5000000000 1
    0.3115942029     0.3115942029     0.5000000000 1
    0.3043478261     0.3043478261     0.5000000000 1
    0.2971014493     0.2971014493     0.5000000000 1
    0.2898550725     0.2898550725     0.5000000000 1
    0.2826086957     0.2826086957     0.5000000000 1
    0.2753623188     0.2753623188     0.5000000000 1
    0.2681159420     0.2681159420     0.5000000000 1
    0.2608695652     0.2608695652     0.5000000000 1
    0.2536231884     0.2536231884     0.5000000000 1
    0.2463768116     0.2463768116     0.5000000000 1
    0.2391304348     0.2391304348     0.5000000000 1
    0.2318840580     0.2318840580     0.5000000000 1
    0.2246376812     0.2246376812     0.5000000000 1
    0.2173913043     0.2173913043     0.5000000000 1
    0.2101449275     0.2101449275     0.5000000000 1
    0.2028985507     0.2028985507     0.5000000000 1
    0.1956521739     0.1956521739     0.5000000000 1
    0.1884057971     0.1884057971     0.5000000000 1
    0.1811594203     0.1811594203     0.5000000000 1
    0.1739130435     0.1739130435     0.5000000000 1
    0.1666666667     0.1666666667     0.5000000000 1
    0.1594202899     0.1594202899     0.5000000000 1
    0.1521739130     0.1521739130     0.5000000000 1
    0.1449275362     0.1449275362     0.5000000000 1
    0.1376811594     0.1376811594     0.5000000000 1
    0.1304347826     0.1304347826     0.5000000000 1
    0.1231884058     0.1231884058     0.5000000000 1
    0.1159420290     0.1159420290     0.5000000000 1
    0.1086956522     0.1086956522     0.5000000000 1
    0.1014492754     0.1014492754     0.5000000000 1
    0.0942028986     0.0942028986     0.5000000000 1
    0.0869565217     0.0869565217     0.5000000000 1
    0.0797101449     0.0797101449     0.5000000000 1
    0.0724637681     0.0724637681     0.5000000000 1
    0.0652173913     0.0652173913     0.5000000000 1
    0.0579710145     0.0579710145     0.5000000000 1
    0.0507246377     0.0507246377     0.5000000000 1
    0.0434782609     0.0434782609     0.5000000000 1
    0.0362318841     0.0362318841     0.5000000000 1
    0.0289855072     0.0289855072     0.5000000000 1
    0.0217391304     0.0217391304     0.5000000000 1
    0.0144927536     0.0144927536     0.5000000000 1
    0.0072463768     0.0072463768     0.5000000000 1
    0.0000000000     0.0000000000     0.5000000000 1
    0.5000000000     0.0000000000     0.5000000000 1
    0.5000000000     0.0000000000     0.4166666667 1
    0.5000000000     0.0000000000     0.3333333333 1
    0.5000000000     0.0000000000     0.2500000000 1
    0.5000000000     0.0000000000     0.1666666667 1
    0.5000000000     0.0000000000     0.0833333333 1
    0.5000000000     0.0000000000     0.0000000000 1
    0.3333333333     0.3333333333     0.5000000000 1
    0.3333333333     0.3333333333     0.4166666667 1
    0.3333333333     0.3333333333     0.3333333333 1
    0.3333333333     0.3333333333     0.2500000000 1
    0.3333333333     0.3333333333     0.1666666667 1
    0.3333333333     0.3333333333     0.0833333333 1
    0.3333333333     0.3333333333     0.0000000000 1
    0.0000000000     0.0000000000     0.0000000000 1
   -0.0128205128     0.0000000000     0.0000000000 1
   -0.0256410256     0.0000000000     0.0000000000 1
   -0.0384615385     0.0000000000     0.0000000000 1
   -0.0512820513     0.0000000000     0.0000000000 1
   -0.0641025641     0.0000000000     0.0000000000 1
   -0.0769230769     0.0000000000     0.0000000000 1
   -0.0897435897     0.0000000000     0.0000000000 1
   -0.1025641026     0.0000000000     0.0000000000 1
   -0.1153846154     0.0000000000     0.0000000000 1
   -0.1282051282     0.0000000000     0.0000000000 1
   -0.1410256410     0.0000000000     0.0000000000 1
   -0.1538461538     0.0000000000     0.0000000000 1
   -0.1666666667     0.0000000000     0.0000000000 1
   -0.1794871795     0.0000000000     0.0000000000 1
   -0.1923076923     0.0000000000     0.0000000000 1
   -0.2051282051     0.0000000000     0.0000000000 1
   -0.2179487179     0.0000000000     0.0000000000 1
   -0.2307692308     0.0000000000     0.0000000000 1
   -0.2435897436     0.0000000000     0.0000000000 1
   -0.2564102564     0.0000000000     0.0000000000 1
   -0.2692307692     0.0000000000     0.0000000000 1
   -0.2820512821     0.0000000000     0.0000000000 1
   -0.2948717949     0.0000000000     0.0000000000 1
   -0.3076923077     0.0000000000     0.0000000000 1
   -0.3205128205     0.0000000000     0.0000000000 1
   -0.3333333333     0.0000000000     0.0000000000 1
   -0.3461538462     0.0000000000     0.0000000000 1
   -0.3589743590     0.0000000000     0.0000000000 1
   -0.3717948718     0.0000000000     0.0000000000 1
   -0.3846153846     0.0000000000     0.0000000000 1
   -0.3974358974     0.0000000000     0.0000000000 1
   -0.4102564103     0.0000000000     0.0000000000 1
   -0.4230769231     0.0000000000     0.0000000000 1
   -0.4358974359     0.0000000000     0.0000000000 1
   -0.4487179487     0.0000000000     0.0000000000 1
   -0.4615384615     0.0000000000     0.0000000000 1
   -0.4743589744     0.0000000000     0.0000000000 1
   -0.4871794872     0.0000000000     0.0000000000 1
   -0.5000000000     0.0000000000     0.0000000000 1
   -0.4924242424    -0.0151515152     0.0000000000 1
   -0.4848484848    -0.0303030303     0.0000000000 1
   -0.4772727273    -0.0454545455     0.0000000000 1
   -0.4696969697    -0.0606060606     0.0000000000 1
   -0.4621212121    -0.0757575758     0.0000000000 1
   -0.4545454545    -0.0909090909     0.0000000000 1
   -0.4469696970    -0.1060606061     0.0000000000 1
   -0.4393939394    -0.1212121212     0.0000000000 1
   -0.4318181818    -0.1363636364     0.0000000000 1
   -0.4242424242    -0.1515151515     0.0000000000 1
   -0.4166666667    -0.1666666667     0.0000000000 1
   -0.4090909091    -0.1818181818     0.0000000000 1
   -0.4015151515    -0.1969696970     0.0000000000 1
   -0.3939393939    -0.2121212121     0.0000000000 1
   -0.3863636364    -0.2272727273     0.0000000000 1
   -0.3787878788    -0.2424242424     0.0000000000 1
   -0.3712121212    -0.2575757576     0.0000000000 1
   -0.3636363636    -0.2727272727     0.0000000000 1
   -0.3560606061    -0.2878787879     0.0000000000 1
   -0.3484848485    -0.3030303030     0.0000000000 1
   -0.3409090909    -0.3181818182     0.0000000000 1
   -0.3333333333    -0.3333333333     0.0000000000 1
   -0.3260869565    -0.3260869565     0.0000000000 1
   -0.3188405797    -0.3188405797     0.0000000000 1
   -0.3115942029    -0.3115942029     0.0000000000 1
   -0.3043478261    -0.3043478261     0.0000000000 1
   -0.2971014493    -0.2971014493     0.0000000000 1
   -0.2898550725    -0.2898550725     0.0000000000 1
   -0.2826086957    -0.2826086957     0.0000000000 1
   -0.2753623188    -0.2753623188     0.0000000000 1
   -0.2681159420    -0.2681159420     0.0000000000 1
   -0.2608695652    -0.2608695652     0.0000000000 1
   -0.2536231884    -0.2536231884     0.0000000000 1
   -0.2463768116    -0.2463768116     0.0000000000 1
   -0.2391304348    -0.2391304348     0.0000000000 1
   -0.2318840580    -0.2318840580     0.0000000000 1
   -0.2246376812    -0.2246376812     0.0000000000 1
   -0.2173913043    -0.2173913043     0.0000000000 1
   -0.2101449275    -0.2101449275     0.0000000000 1
   -0.2028985507    -0.2028985507     0.0000000000 1
   -0.1956521739    -0.1956521739     0.0000000000 1
   -0.1884057971    -0.1884057971     0.0000000000 1
   -0.1811594203    -0.1811594203     0.0000000000 1
   -0.1739130435    -0.1739130435     0.0000000000 1
   -0.1666666667    -0.1666666667     0.0000000000 1
   -0.1594202899    -0.1594202899     0.0000000000 1
   -0.1521739130    -0.1521739130     0.0000000000 1
   -0.1449275362    -0.1449275362     0.0000000000 1
   -0.1376811594    -0.1376811594     0.0000000000 1
   -0.1304347826    -0.1304347826     0.0000000000 1
   -0.1231884058    -0.1231884058     0.0000000000 1
   -0.1159420290    -0.1159420290     0.0000000000 1
   -0.1086956522    -0.1086956522     0.0000000000 1
   -0.1014492754    -0.1014492754     0.0000000000 1
   -0.0942028986    -0.0942028986     0.0000000000 1
   -0.0869565217    -0.0869565217     0.0000000000 1
   -0.0797101449    -0.0797101449     0.0000000000 1
   -0.0724637681    -0.0724637681     0.0000000000 1
   -0.0652173913    -0.0652173913     0.0000000000 1
   -0.0579710145    -0.0579710145     0.0000000000 1
   -0.0507246377    -0.0507246377     0.0000000000 1
   -0.0434782609    -0.0434782609     0.0000000000 1
   -0.0362318841    -0.0362318841     0.0000000000 1
   -0.0289855072    -0.0289855072     0.0000000000 1
   -0.0217391304    -0.0217391304     0.0000000000 1
   -0.0144927536    -0.0144927536     0.0000000000 1
   -0.0072463768    -0.0072463768     0.0000000000 1
    0.0000000000     0.0000000000     0.0000000000 1
    0.0000000000     0.0000000000    -0.0833333333 1
    0.0000000000     0.0000000000    -0.1666666667 1
    0.0000000000     0.0000000000    -0.2500000000 1
    0.0000000000     0.0000000000    -0.3333333333 1
    0.0000000000     0.0000000000    -0.4166666667 1
    0.0000000000     0.0000000000    -0.5000000000 1
   -0.0128205128     0.0000000000    -0.5000000000 1
   -0.0256410256     0.0000000000    -0.5000000000 1
   -0.0384615385     0.0000000000    -0.5000000000 1
   -0.0512820513     0.0000000000    -0.5000000000 1
   -0.0641025641     0.0000000000    -0.5000000000 1
   -0.0769230769     0.0000000000    -0.5000000000 1
   -0.0897435897     0.0000000000    -0.5000000000 1
   -0.1025641026     0.0000000000    -0.5000000000 1
   -0.1153846154     0.0000000000    -0.5000000000 1
   -0.1282051282     0.0000000000    -0.5000000000 1
   -0.1410256410     0.0000000000    -0.5000000000 1
   -0.1538461538     0.0000000000    -0.5000000000 1
   -0.1666666667     0.0000000000    -0.5000000000 1
   -0.1794871795     0.0000000000    -0.5000000000 1
   -0.1923076923     0.0000000000    -0.5000000000 1
   -0.2051282051     0.0000000000    -0.5000000000 1
   -0.2179487179     0.0000000000    -0.5000000000 1
   -0.2307692308     0.0000000000    -0.5000000000 1
   -0.2435897436     0.0000000000    -0.5000000000 1
   -0.2564102564     0.0000000000    -0.5000000000 1
   -0.2692307692     0.0000000000    -0.5000000000 1
   -0.2820512821     0.0000000000    -0.5000000000 1
   -0.2948717949     0.0000000000    -0.5000000000 1
   -0.3076923077     0.0000000000    -0.5000000000 1
   -0.3205128205     0.0000000000    -0.5000000000 1
   -0.3333333333     0.0000000000    -0.5000000000 1
   -0.3461538462     0.0000000000    -0.5000000000 1
   -0.3589743590     0.0000000000    -0.5000000000 1
   -0.3717948718     0.0000000000    -0.5000000000 1
   -0.3846153846     0.0000000000    -0.5000000000 1
   -0.3974358974     0.0000000000    -0.5000000000 1
   -0.4102564103     0.0000000000    -0.5000000000 1
   -0.4230769231     0.0000000000    -0.5000000000 1
   -0.4358974359     0.0000000000    -0.5000000000 1
   -0.4487179487     0.0000000000    -0.5000000000 1
   -0.4615384615     0.0000000000    -0.5000000000 1
   -0.4743589744     0.0000000000    -0.5000000000 1
   -0.4871794872     0.0000000000    -0.5000000000 1
   -0.5000000000     0.0000000000    -0.5000000000 1
   -0.4924242424    -0.0151515152    -0.5000000000 1
   -0.4848484848    -0.0303030303    -0.5000000000 1
   -0.4772727273    -0.0454545455    -0.5000000000 1
   -0.4696969697    -0.0606060606    -0.5000000000 1
   -0.4621212121    -0.0757575758    -0.5000000000 1
   -0.4545454545    -0.0909090909    -0.5000000000 1
   -0.4469696970    -0.1060606061    -0.5000000000 1
   -0.4393939394    -0.1212121212    -0.5000000000 1
   -0.4318181818    -0.1363636364    -0.5000000000 1
   -0.4242424242    -0.1515151515    -0.5000000000 1
   -0.4166666667    -0.1666666667    -0.5000000000 1
   -0.4090909091    -0.1818181818    -0.5000000000 1
   -0.4015151515    -0.1969696970    -0.5000000000 1
   -0.3939393939    -0.2121212121    -0.5000000000 1
   -0.3863636364    -0.2272727273    -0.5000000000 1
   -0.3787878788    -0.2424242424    -0.5000000000 1
   -0.3712121212    -0.2575757576    -0.5000000000 1
   -0.3636363636    -0.2727272727    -0.5000000000 1
   -0.3560606061    -0.2878787879    -0.5000000000 1
   -0.3484848485    -0.3030303030    -0.5000000000 1
   -0.3409090909    -0.3181818182    -0.5000000000 1
   -0.3333333333    -0.3333333333    -0.5000000000 1
   -0.3260869565    -0.3260869565    -0.5000000000 1
   -0.3188405797    -0.3188405797    -0.5000000000 1
   -0.3115942029    -0.3115942029    -0.5000000000 1
   -0.3043478261    -0.3043478261    -0.5000000000 1
   -0.2971014493    -0.2971014493    -0.5000000000 1
   -0.2898550725    -0.2898550725    -0.5000000000 1
   -0.2826086957    -0.2826086957    -0.5000000000 1
   -0.2753623188    -0.2753623188    -0.5000000000 1
   -0.2681159420    -0.2681159420    -0.5000000000 1
   -0.2608695652    -0.2608695652    -0.5000000000 1
   -0.2536231884    -0.2536231884    -0.5000000000 1
   -0.2463768116    -0.2463768116    -0.5000000000 1
   -0.2391304348    -0.2391304348    -0.5000000000 1
   -0.2318840580    -0.2318840580    -0.5000000000 1
   -0.2246376812    -0.2246376812    -0.5000000000 1
   -0.2173913043    -0.2173913043    -0.5000000000 1
   -0.2101449275    -0.2101449275    -0.5000000000 1
   -0.2028985507    -0.2028985507    -0.5000000000 1
   -0.1956521739    -0.1956521739    -0.5000000000 1
   -0.1884057971    -0.1884057971    -0.5000000000 1
   -0.1811594203    -0.1811594203    -0.5000000000 1
   -0.1739130435    -0.1739130435    -0.5000000000 1
   -0.1666666667    -0.1666666667    -0.5000000000 1
   -0.1594202899    -0.1594202899    -0.5000000000 1
   -0.1521739130    -0.1521739130    -0.5000000000 1
   -0.1449275362    -0.1449275362    -0.5000000000 1
   -0.1376811594    -0.1376811594    -0.5000000000 1
   -0.1304347826    -0.1304347826    -0.5000000000 1
   -0.1231884058    -0.1231884058    -0.5000000000 1
   -0.1159420290    -0.1159420290    -0.5000000000 1
   -0.1086956522    -0.1086956522    -0.5000000000 1
   -0.1014492754    -0.1014492754    -0.5000000000 1
   -0.0942028986    -0.0942028986    -0.5000000000 1
   -0.0869565217    -0.0869565217    -0.5000000000 1
   -0.0797101449    -0.0797101449    -0.5000000000 1
   -0.0724637681    -0.0724637681    -0.5000000000 1
   -0.0652173913    -0.0652173913    -0.5000000000 1
   -0.0579710145    -0.0579710145    -0.5000000000 1
   -0.0507246377    -0.0507246377    -0.5000000000 1
   -0.0434782609    -0.0434782609    -0.5000000000 1
   -0.0362318841    -0.0362318841    -0.5000000000 1
   -0.0289855072    -0.0289855072    -0.5000000000 1
   -0.0217391304    -0.0217391304    -0.5000000000 1
   -0.0144927536    -0.0144927536    -0.5000000000 1
   -0.0072463768    -0.0072463768    -0.5000000000 1
    0.0000000000     0.0000000000    -0.5000000000 1
   -0.5000000000     0.0000000000    -0.5000000000 1
   -0.5000000000     0.0000000000    -0.4166666667 1
   -0.5000000000     0.0000000000    -0.3333333333 1
   -0.5000000000     0.0000000000    -0.2500000000 1
   -0.5000000000     0.0000000000    -0.1666666667 1
   -0.5000000000     0.0000000000    -0.0833333333 1
   -0.5000000000     0.0000000000     0.0000000000 1
   -0.3333333333    -0.3333333333    -0.5000000000 1
   -0.3333333333    -0.3333333333    -0.4166666667 1
   -0.3333333333    -0.3333333333    -0.3333333333 1
   -0.3333333333    -0.3333333333    -0.2500000000 1
   -0.3333333333    -0.3333333333    -0.1666666667 1
   -0.3333333333    -0.3333333333    -0.0833333333 1
   -0.3333333333    -0.3333333333     0.0000000000 1
