&CONTROL
  calculation = 'nscf'
  etot_conv_thr =   3.0000000000d-05
  forc_conv_thr =   1.0000000000d-04
  outdir = './outdir'
  prefix = 'MoTe2'
  pseudo_dir = './'
  verbosity = 'high'
/
&SYSTEM
  degauss =   1.4699723600d-02
  ecutrho =   320
  ecutwfc =   80
  ibrav = 4
  a = 3.550484715
  c = 17.93199885
  nat = 3
  ntyp = 2
  nbnd = 46 
  occupations = 'tetrahedra'
/
&ELECTRONS
  conv_thr = 6.0000000000d-10
  electron_maxstep = 200
  mixing_beta = 0.7
/
ATOMIC_SPECIES
Mo     95.96 Mo.upf
Te     127.6 Te.upf

ATOMIC_POSITIONS crystal
Te            0.3333333300        0.6666666700        0.8984529689
Te            0.3333333300        0.6666666700        0.1015470311
Mo           -0.0000000000       -0.0000000000        0.0000000000

K_POINTS automatic
36 36 1 0 0 0
