&DOS
  prefix = 'MoTe2'
  outdir = './outdir'
  fildos = 'MoTe2-energy.dos.dat'
  ngauss = 0
  degauss = 0.02
  deltaE = 0.005
  emin = -10
  emax = 10
/
