&BANDS
  prefix = 'MoTe2'
  outdir = './outdir'
  filband = 'MoTe2.bands.dat'
/

