&CONTROL
  calculation = 'bands'
  etot_conv_thr =   3.0000000000d-05
  forc_conv_thr =   1.0000000000d-04
  outdir = './outdir'
  prefix = 'MoTe2'
  pseudo_dir = './'
  verbosity = 'high'
/
&SYSTEM
  degauss =   1.4699723600d-02
  ecutrho =   320
  ecutwfc =   80
  ibrav = 4
  a = 3.223713577
  c = 23.01488999
  nat = 3
  ntyp = 2
  nbnd = 46
/
&ELECTRONS
  conv_thr =   6.0000000000d-10
  electron_maxstep = 200
  mixing_beta =   0.7
/
ATOMIC_SPECIES
Mo     95.96 Mo.upf
Te     127.6 Te.upf

ATOMIC_POSITIONS crystal
Te            0.3333333300        0.6666666700        0.9067098320
Te            0.3333333300        0.6666666700        0.0812309757
Mo            0.6666666700        0.3333333300        0.1636006823

K_POINTS crystal
502
    0.0000000000     0.0000000000     0.0000000000 1
    0.0113636364     0.0000000000     0.0000000000 1
    0.0227272727     0.0000000000     0.0000000000 1
    0.0340909091     0.0000000000     0.0000000000 1
    0.0454545455     0.0000000000     0.0000000000 1
    0.0568181818     0.0000000000     0.0000000000 1
    0.0681818182     0.0000000000     0.0000000000 1
    0.0795454545     0.0000000000     0.0000000000 1
    0.0909090909     0.0000000000     0.0000000000 1
    0.1022727273     0.0000000000     0.0000000000 1
    0.1136363636     0.0000000000     0.0000000000 1
    0.1250000000     0.0000000000     0.0000000000 1
    0.1363636364     0.0000000000     0.0000000000 1
    0.1477272727     0.0000000000     0.0000000000 1
    0.1590909091     0.0000000000     0.0000000000 1
    0.1704545455     0.0000000000     0.0000000000 1
    0.1818181818     0.0000000000     0.0000000000 1
    0.1931818182     0.0000000000     0.0000000000 1
    0.2045454545     0.0000000000     0.0000000000 1
    0.2159090909     0.0000000000     0.0000000000 1
    0.2272727273     0.0000000000     0.0000000000 1
    0.2386363636     0.0000000000     0.0000000000 1
    0.2500000000     0.0000000000     0.0000000000 1
    0.2613636364     0.0000000000     0.0000000000 1
    0.2727272727     0.0000000000     0.0000000000 1
    0.2840909091     0.0000000000     0.0000000000 1
    0.2954545455     0.0000000000     0.0000000000 1
    0.3068181818     0.0000000000     0.0000000000 1
    0.3181818182     0.0000000000     0.0000000000 1
    0.3295454545     0.0000000000     0.0000000000 1
    0.3409090909     0.0000000000     0.0000000000 1
    0.3522727273     0.0000000000     0.0000000000 1
    0.3636363636     0.0000000000     0.0000000000 1
    0.3750000000     0.0000000000     0.0000000000 1
    0.3863636364     0.0000000000     0.0000000000 1
    0.3977272727     0.0000000000     0.0000000000 1
    0.4090909091     0.0000000000     0.0000000000 1
    0.4204545455     0.0000000000     0.0000000000 1
    0.4318181818     0.0000000000     0.0000000000 1
    0.4431818182     0.0000000000     0.0000000000 1
    0.4545454545     0.0000000000     0.0000000000 1
    0.4659090909     0.0000000000     0.0000000000 1
    0.4772727273     0.0000000000     0.0000000000 1
    0.4886363636     0.0000000000     0.0000000000 1
    0.5000000000     0.0000000000     0.0000000000 1
    0.4930555556     0.0138888889     0.0000000000 1
    0.4861111111     0.0277777778     0.0000000000 1
    0.4791666667     0.0416666667     0.0000000000 1
    0.4722222222     0.0555555556     0.0000000000 1
    0.4652777778     0.0694444444     0.0000000000 1
    0.4583333333     0.0833333333     0.0000000000 1
    0.4513888889     0.0972222222     0.0000000000 1
    0.4444444444     0.1111111111     0.0000000000 1
    0.4375000000     0.1250000000     0.0000000000 1
    0.4305555556     0.1388888889     0.0000000000 1
    0.4236111111     0.1527777778     0.0000000000 1
    0.4166666667     0.1666666667     0.0000000000 1
    0.4097222222     0.1805555556     0.0000000000 1
    0.4027777778     0.1944444444     0.0000000000 1
    0.3958333333     0.2083333333     0.0000000000 1
    0.3888888889     0.2222222222     0.0000000000 1
    0.3819444444     0.2361111111     0.0000000000 1
    0.3750000000     0.2500000000     0.0000000000 1
    0.3680555556     0.2638888889     0.0000000000 1
    0.3611111111     0.2777777778     0.0000000000 1
    0.3541666667     0.2916666667     0.0000000000 1
    0.3472222222     0.3055555556     0.0000000000 1
    0.3402777778     0.3194444444     0.0000000000 1
    0.3333333333     0.3333333333     0.0000000000 1
    0.3266666667     0.3266666667     0.0000000000 1
    0.3200000000     0.3200000000     0.0000000000 1
    0.3133333333     0.3133333333     0.0000000000 1
    0.3066666667     0.3066666667     0.0000000000 1
    0.3000000000     0.3000000000     0.0000000000 1
    0.2933333333     0.2933333333     0.0000000000 1
    0.2866666667     0.2866666667     0.0000000000 1
    0.2800000000     0.2800000000     0.0000000000 1
    0.2733333333     0.2733333333     0.0000000000 1
    0.2666666667     0.2666666667     0.0000000000 1
    0.2600000000     0.2600000000     0.0000000000 1
    0.2533333333     0.2533333333     0.0000000000 1
    0.2466666667     0.2466666667     0.0000000000 1
    0.2400000000     0.2400000000     0.0000000000 1
    0.2333333333     0.2333333333     0.0000000000 1
    0.2266666667     0.2266666667     0.0000000000 1
    0.2200000000     0.2200000000     0.0000000000 1
    0.2133333333     0.2133333333     0.0000000000 1
    0.2066666667     0.2066666667     0.0000000000 1
    0.2000000000     0.2000000000     0.0000000000 1
    0.1933333333     0.1933333333     0.0000000000 1
    0.1866666667     0.1866666667     0.0000000000 1
    0.1800000000     0.1800000000     0.0000000000 1
    0.1733333333     0.1733333333     0.0000000000 1
    0.1666666667     0.1666666667     0.0000000000 1
    0.1600000000     0.1600000000     0.0000000000 1
    0.1533333333     0.1533333333     0.0000000000 1
    0.1466666667     0.1466666667     0.0000000000 1
    0.1400000000     0.1400000000     0.0000000000 1
    0.1333333333     0.1333333333     0.0000000000 1
    0.1266666667     0.1266666667     0.0000000000 1
    0.1200000000     0.1200000000     0.0000000000 1
    0.1133333333     0.1133333333     0.0000000000 1
    0.1066666667     0.1066666667     0.0000000000 1
    0.1000000000     0.1000000000     0.0000000000 1
    0.0933333333     0.0933333333     0.0000000000 1
    0.0866666667     0.0866666667     0.0000000000 1
    0.0800000000     0.0800000000     0.0000000000 1
    0.0733333333     0.0733333333     0.0000000000 1
    0.0666666667     0.0666666667     0.0000000000 1
    0.0600000000     0.0600000000     0.0000000000 1
    0.0533333333     0.0533333333     0.0000000000 1
    0.0466666667     0.0466666667     0.0000000000 1
    0.0400000000     0.0400000000     0.0000000000 1
    0.0333333333     0.0333333333     0.0000000000 1
    0.0266666667     0.0266666667     0.0000000000 1
    0.0200000000     0.0200000000     0.0000000000 1
    0.0133333333     0.0133333333     0.0000000000 1
    0.0066666667     0.0066666667     0.0000000000 1
    0.0000000000     0.0000000000     0.0000000000 1
    0.0000000000     0.0000000000     0.1250000000 1
    0.0000000000     0.0000000000     0.2500000000 1
    0.0000000000     0.0000000000     0.3750000000 1
    0.0000000000     0.0000000000     0.5000000000 1
    0.0113636364     0.0000000000     0.5000000000 1
    0.0227272727     0.0000000000     0.5000000000 1
    0.0340909091     0.0000000000     0.5000000000 1
    0.0454545455     0.0000000000     0.5000000000 1
    0.0568181818     0.0000000000     0.5000000000 1
    0.0681818182     0.0000000000     0.5000000000 1
    0.0795454545     0.0000000000     0.5000000000 1
    0.0909090909     0.0000000000     0.5000000000 1
    0.1022727273     0.0000000000     0.5000000000 1
    0.1136363636     0.0000000000     0.5000000000 1
    0.1250000000     0.0000000000     0.5000000000 1
    0.1363636364     0.0000000000     0.5000000000 1
    0.1477272727     0.0000000000     0.5000000000 1
    0.1590909091     0.0000000000     0.5000000000 1
    0.1704545455     0.0000000000     0.5000000000 1
    0.1818181818     0.0000000000     0.5000000000 1
    0.1931818182     0.0000000000     0.5000000000 1
    0.2045454545     0.0000000000     0.5000000000 1
    0.2159090909     0.0000000000     0.5000000000 1
    0.2272727273     0.0000000000     0.5000000000 1
    0.2386363636     0.0000000000     0.5000000000 1
    0.2500000000     0.0000000000     0.5000000000 1
    0.2613636364     0.0000000000     0.5000000000 1
    0.2727272727     0.0000000000     0.5000000000 1
    0.2840909091     0.0000000000     0.5000000000 1
    0.2954545455     0.0000000000     0.5000000000 1
    0.3068181818     0.0000000000     0.5000000000 1
    0.3181818182     0.0000000000     0.5000000000 1
    0.3295454545     0.0000000000     0.5000000000 1
    0.3409090909     0.0000000000     0.5000000000 1
    0.3522727273     0.0000000000     0.5000000000 1
    0.3636363636     0.0000000000     0.5000000000 1
    0.3750000000     0.0000000000     0.5000000000 1
    0.3863636364     0.0000000000     0.5000000000 1
    0.3977272727     0.0000000000     0.5000000000 1
    0.4090909091     0.0000000000     0.5000000000 1
    0.4204545455     0.0000000000     0.5000000000 1
    0.4318181818     0.0000000000     0.5000000000 1
    0.4431818182     0.0000000000     0.5000000000 1
    0.4545454545     0.0000000000     0.5000000000 1
    0.4659090909     0.0000000000     0.5000000000 1
    0.4772727273     0.0000000000     0.5000000000 1
    0.4886363636     0.0000000000     0.5000000000 1
    0.5000000000     0.0000000000     0.5000000000 1
    0.4930555556     0.0138888889     0.5000000000 1
    0.4861111111     0.0277777778     0.5000000000 1
    0.4791666667     0.0416666667     0.5000000000 1
    0.4722222222     0.0555555556     0.5000000000 1
    0.4652777778     0.0694444444     0.5000000000 1
    0.4583333333     0.0833333333     0.5000000000 1
    0.4513888889     0.0972222222     0.5000000000 1
    0.4444444444     0.1111111111     0.5000000000 1
    0.4375000000     0.1250000000     0.5000000000 1
    0.4305555556     0.1388888889     0.5000000000 1
    0.4236111111     0.1527777778     0.5000000000 1
    0.4166666667     0.1666666667     0.5000000000 1
    0.4097222222     0.1805555556     0.5000000000 1
    0.4027777778     0.1944444444     0.5000000000 1
    0.3958333333     0.2083333333     0.5000000000 1
    0.3888888889     0.2222222222     0.5000000000 1
    0.3819444444     0.2361111111     0.5000000000 1
    0.3750000000     0.2500000000     0.5000000000 1
    0.3680555556     0.2638888889     0.5000000000 1
    0.3611111111     0.2777777778     0.5000000000 1
    0.3541666667     0.2916666667     0.5000000000 1
    0.3472222222     0.3055555556     0.5000000000 1
    0.3402777778     0.3194444444     0.5000000000 1
    0.3333333333     0.3333333333     0.5000000000 1
    0.3266666667     0.3266666667     0.5000000000 1
    0.3200000000     0.3200000000     0.5000000000 1
    0.3133333333     0.3133333333     0.5000000000 1
    0.3066666667     0.3066666667     0.5000000000 1
    0.3000000000     0.3000000000     0.5000000000 1
    0.2933333333     0.2933333333     0.5000000000 1
    0.2866666667     0.2866666667     0.5000000000 1
    0.2800000000     0.2800000000     0.5000000000 1
    0.2733333333     0.2733333333     0.5000000000 1
    0.2666666667     0.2666666667     0.5000000000 1
    0.2600000000     0.2600000000     0.5000000000 1
    0.2533333333     0.2533333333     0.5000000000 1
    0.2466666667     0.2466666667     0.5000000000 1
    0.2400000000     0.2400000000     0.5000000000 1
    0.2333333333     0.2333333333     0.5000000000 1
    0.2266666667     0.2266666667     0.5000000000 1
    0.2200000000     0.2200000000     0.5000000000 1
    0.2133333333     0.2133333333     0.5000000000 1
    0.2066666667     0.2066666667     0.5000000000 1
    0.2000000000     0.2000000000     0.5000000000 1
    0.1933333333     0.1933333333     0.5000000000 1
    0.1866666667     0.1866666667     0.5000000000 1
    0.1800000000     0.1800000000     0.5000000000 1
    0.1733333333     0.1733333333     0.5000000000 1
    0.1666666667     0.1666666667     0.5000000000 1
    0.1600000000     0.1600000000     0.5000000000 1
    0.1533333333     0.1533333333     0.5000000000 1
    0.1466666667     0.1466666667     0.5000000000 1
    0.1400000000     0.1400000000     0.5000000000 1
    0.1333333333     0.1333333333     0.5000000000 1
    0.1266666667     0.1266666667     0.5000000000 1
    0.1200000000     0.1200000000     0.5000000000 1
    0.1133333333     0.1133333333     0.5000000000 1
    0.1066666667     0.1066666667     0.5000000000 1
    0.1000000000     0.1000000000     0.5000000000 1
    0.0933333333     0.0933333333     0.5000000000 1
    0.0866666667     0.0866666667     0.5000000000 1
    0.0800000000     0.0800000000     0.5000000000 1
    0.0733333333     0.0733333333     0.5000000000 1
    0.0666666667     0.0666666667     0.5000000000 1
    0.0600000000     0.0600000000     0.5000000000 1
    0.0533333333     0.0533333333     0.5000000000 1
    0.0466666667     0.0466666667     0.5000000000 1
    0.0400000000     0.0400000000     0.5000000000 1
    0.0333333333     0.0333333333     0.5000000000 1
    0.0266666667     0.0266666667     0.5000000000 1
    0.0200000000     0.0200000000     0.5000000000 1
    0.0133333333     0.0133333333     0.5000000000 1
    0.0066666667     0.0066666667     0.5000000000 1
    0.0000000000     0.0000000000     0.5000000000 1
    0.5000000000     0.0000000000     0.5000000000 1
    0.5000000000     0.0000000000     0.3750000000 1
    0.5000000000     0.0000000000     0.2500000000 1
    0.5000000000     0.0000000000     0.1250000000 1
    0.5000000000     0.0000000000     0.0000000000 1
    0.3333333333     0.3333333333     0.5000000000 1
    0.3333333333     0.3333333333     0.3750000000 1
    0.3333333333     0.3333333333     0.2500000000 1
    0.3333333333     0.3333333333     0.1250000000 1
    0.3333333333     0.3333333333     0.0000000000 1
    0.0000000000     0.0000000000     0.0000000000 1
   -0.0113636364     0.0000000000     0.0000000000 1
   -0.0227272727     0.0000000000     0.0000000000 1
   -0.0340909091     0.0000000000     0.0000000000 1
   -0.0454545455     0.0000000000     0.0000000000 1
   -0.0568181818     0.0000000000     0.0000000000 1
   -0.0681818182     0.0000000000     0.0000000000 1
   -0.0795454545     0.0000000000     0.0000000000 1
   -0.0909090909     0.0000000000     0.0000000000 1
   -0.1022727273     0.0000000000     0.0000000000 1
   -0.1136363636     0.0000000000     0.0000000000 1
   -0.1250000000     0.0000000000     0.0000000000 1
   -0.1363636364     0.0000000000     0.0000000000 1
   -0.1477272727     0.0000000000     0.0000000000 1
   -0.1590909091     0.0000000000     0.0000000000 1
   -0.1704545455     0.0000000000     0.0000000000 1
   -0.1818181818     0.0000000000     0.0000000000 1
   -0.1931818182     0.0000000000     0.0000000000 1
   -0.2045454545     0.0000000000     0.0000000000 1
   -0.2159090909     0.0000000000     0.0000000000 1
   -0.2272727273     0.0000000000     0.0000000000 1
   -0.2386363636     0.0000000000     0.0000000000 1
   -0.2500000000     0.0000000000     0.0000000000 1
   -0.2613636364     0.0000000000     0.0000000000 1
   -0.2727272727     0.0000000000     0.0000000000 1
   -0.2840909091     0.0000000000     0.0000000000 1
   -0.2954545455     0.0000000000     0.0000000000 1
   -0.3068181818     0.0000000000     0.0000000000 1
   -0.3181818182     0.0000000000     0.0000000000 1
   -0.3295454545     0.0000000000     0.0000000000 1
   -0.3409090909     0.0000000000     0.0000000000 1
   -0.3522727273     0.0000000000     0.0000000000 1
   -0.3636363636     0.0000000000     0.0000000000 1
   -0.3750000000     0.0000000000     0.0000000000 1
   -0.3863636364     0.0000000000     0.0000000000 1
   -0.3977272727     0.0000000000     0.0000000000 1
   -0.4090909091     0.0000000000     0.0000000000 1
   -0.4204545455     0.0000000000     0.0000000000 1
   -0.4318181818     0.0000000000     0.0000000000 1
   -0.4431818182     0.0000000000     0.0000000000 1
   -0.4545454545     0.0000000000     0.0000000000 1
   -0.4659090909     0.0000000000     0.0000000000 1
   -0.4772727273     0.0000000000     0.0000000000 1
   -0.4886363636     0.0000000000     0.0000000000 1
   -0.5000000000     0.0000000000     0.0000000000 1
   -0.4930555556    -0.0138888889     0.0000000000 1
   -0.4861111111    -0.0277777778     0.0000000000 1
   -0.4791666667    -0.0416666667     0.0000000000 1
   -0.4722222222    -0.0555555556     0.0000000000 1
   -0.4652777778    -0.0694444444     0.0000000000 1
   -0.4583333333    -0.0833333333     0.0000000000 1
   -0.4513888889    -0.0972222222     0.0000000000 1
   -0.4444444444    -0.1111111111     0.0000000000 1
   -0.4375000000    -0.1250000000     0.0000000000 1
   -0.4305555556    -0.1388888889     0.0000000000 1
   -0.4236111111    -0.1527777778     0.0000000000 1
   -0.4166666667    -0.1666666667     0.0000000000 1
   -0.4097222222    -0.1805555556     0.0000000000 1
   -0.4027777778    -0.1944444444     0.0000000000 1
   -0.3958333333    -0.2083333333     0.0000000000 1
   -0.3888888889    -0.2222222222     0.0000000000 1
   -0.3819444444    -0.2361111111     0.0000000000 1
   -0.3750000000    -0.2500000000     0.0000000000 1
   -0.3680555556    -0.2638888889     0.0000000000 1
   -0.3611111111    -0.2777777778     0.0000000000 1
   -0.3541666667    -0.2916666667     0.0000000000 1
   -0.3472222222    -0.3055555556     0.0000000000 1
   -0.3402777778    -0.3194444444     0.0000000000 1
   -0.3333333333    -0.3333333333     0.0000000000 1
   -0.3266666667    -0.3266666667     0.0000000000 1
   -0.3200000000    -0.3200000000     0.0000000000 1
   -0.3133333333    -0.3133333333     0.0000000000 1
   -0.3066666667    -0.3066666667     0.0000000000 1
   -0.3000000000    -0.3000000000     0.0000000000 1
   -0.2933333333    -0.2933333333     0.0000000000 1
   -0.2866666667    -0.2866666667     0.0000000000 1
   -0.2800000000    -0.2800000000     0.0000000000 1
   -0.2733333333    -0.2733333333     0.0000000000 1
   -0.2666666667    -0.2666666667     0.0000000000 1
   -0.2600000000    -0.2600000000     0.0000000000 1
   -0.2533333333    -0.2533333333     0.0000000000 1
   -0.2466666667    -0.2466666667     0.0000000000 1
   -0.2400000000    -0.2400000000     0.0000000000 1
   -0.2333333333    -0.2333333333     0.0000000000 1
   -0.2266666667    -0.2266666667     0.0000000000 1
   -0.2200000000    -0.2200000000     0.0000000000 1
   -0.2133333333    -0.2133333333     0.0000000000 1
   -0.2066666667    -0.2066666667     0.0000000000 1
   -0.2000000000    -0.2000000000     0.0000000000 1
   -0.1933333333    -0.1933333333     0.0000000000 1
   -0.1866666667    -0.1866666667     0.0000000000 1
   -0.1800000000    -0.1800000000     0.0000000000 1
   -0.1733333333    -0.1733333333     0.0000000000 1
   -0.1666666667    -0.1666666667     0.0000000000 1
   -0.1600000000    -0.1600000000     0.0000000000 1
   -0.1533333333    -0.1533333333     0.0000000000 1
   -0.1466666667    -0.1466666667     0.0000000000 1
   -0.1400000000    -0.1400000000     0.0000000000 1
   -0.1333333333    -0.1333333333     0.0000000000 1
   -0.1266666667    -0.1266666667     0.0000000000 1
   -0.1200000000    -0.1200000000     0.0000000000 1
   -0.1133333333    -0.1133333333     0.0000000000 1
   -0.1066666667    -0.1066666667     0.0000000000 1
   -0.1000000000    -0.1000000000     0.0000000000 1
   -0.0933333333    -0.0933333333     0.0000000000 1
   -0.0866666667    -0.0866666667     0.0000000000 1
   -0.0800000000    -0.0800000000     0.0000000000 1
   -0.0733333333    -0.0733333333     0.0000000000 1
   -0.0666666667    -0.0666666667     0.0000000000 1
   -0.0600000000    -0.0600000000     0.0000000000 1
   -0.0533333333    -0.0533333333     0.0000000000 1
   -0.0466666667    -0.0466666667     0.0000000000 1
   -0.0400000000    -0.0400000000     0.0000000000 1
   -0.0333333333    -0.0333333333     0.0000000000 1
   -0.0266666667    -0.0266666667     0.0000000000 1
   -0.0200000000    -0.0200000000     0.0000000000 1
   -0.0133333333    -0.0133333333     0.0000000000 1
   -0.0066666667    -0.0066666667     0.0000000000 1
   -0.0000000000    -0.0000000000     0.0000000000 1
    0.0000000000     0.0000000000    -0.1250000000 1
    0.0000000000     0.0000000000    -0.2500000000 1
    0.0000000000     0.0000000000    -0.3750000000 1
    0.0000000000     0.0000000000    -0.5000000000 1
   -0.0113636364     0.0000000000    -0.5000000000 1
   -0.0227272727     0.0000000000    -0.5000000000 1
   -0.0340909091     0.0000000000    -0.5000000000 1
   -0.0454545455     0.0000000000    -0.5000000000 1
   -0.0568181818     0.0000000000    -0.5000000000 1
   -0.0681818182     0.0000000000    -0.5000000000 1
   -0.0795454545     0.0000000000    -0.5000000000 1
   -0.0909090909     0.0000000000    -0.5000000000 1
   -0.1022727273     0.0000000000    -0.5000000000 1
   -0.1136363636     0.0000000000    -0.5000000000 1
   -0.1250000000     0.0000000000    -0.5000000000 1
   -0.1363636364     0.0000000000    -0.5000000000 1
   -0.1477272727     0.0000000000    -0.5000000000 1
   -0.1590909091     0.0000000000    -0.5000000000 1
   -0.1704545455     0.0000000000    -0.5000000000 1
   -0.1818181818     0.0000000000    -0.5000000000 1
   -0.1931818182     0.0000000000    -0.5000000000 1
   -0.2045454545     0.0000000000    -0.5000000000 1
   -0.2159090909     0.0000000000    -0.5000000000 1
   -0.2272727273     0.0000000000    -0.5000000000 1
   -0.2386363636     0.0000000000    -0.5000000000 1
   -0.2500000000     0.0000000000    -0.5000000000 1
   -0.2613636364     0.0000000000    -0.5000000000 1
   -0.2727272727     0.0000000000    -0.5000000000 1
   -0.2840909091     0.0000000000    -0.5000000000 1
   -0.2954545455     0.0000000000    -0.5000000000 1
   -0.3068181818     0.0000000000    -0.5000000000 1
   -0.3181818182     0.0000000000    -0.5000000000 1
   -0.3295454545     0.0000000000    -0.5000000000 1
   -0.3409090909     0.0000000000    -0.5000000000 1
   -0.3522727273     0.0000000000    -0.5000000000 1
   -0.3636363636     0.0000000000    -0.5000000000 1
   -0.3750000000     0.0000000000    -0.5000000000 1
   -0.3863636364     0.0000000000    -0.5000000000 1
   -0.3977272727     0.0000000000    -0.5000000000 1
   -0.4090909091     0.0000000000    -0.5000000000 1
   -0.4204545455     0.0000000000    -0.5000000000 1
   -0.4318181818     0.0000000000    -0.5000000000 1
   -0.4431818182     0.0000000000    -0.5000000000 1
   -0.4545454545     0.0000000000    -0.5000000000 1
   -0.4659090909     0.0000000000    -0.5000000000 1
   -0.4772727273     0.0000000000    -0.5000000000 1
   -0.4886363636     0.0000000000    -0.5000000000 1
   -0.5000000000     0.0000000000    -0.5000000000 1
   -0.4930555556    -0.0138888889    -0.5000000000 1
   -0.4861111111    -0.0277777778    -0.5000000000 1
   -0.4791666667    -0.0416666667    -0.5000000000 1
   -0.4722222222    -0.0555555556    -0.5000000000 1
   -0.4652777778    -0.0694444444    -0.5000000000 1
   -0.4583333333    -0.0833333333    -0.5000000000 1
   -0.4513888889    -0.0972222222    -0.5000000000 1
   -0.4444444444    -0.1111111111    -0.5000000000 1
   -0.4375000000    -0.1250000000    -0.5000000000 1
   -0.4305555556    -0.1388888889    -0.5000000000 1
   -0.4236111111    -0.1527777778    -0.5000000000 1
   -0.4166666667    -0.1666666667    -0.5000000000 1
   -0.4097222222    -0.1805555556    -0.5000000000 1
   -0.4027777778    -0.1944444444    -0.5000000000 1
   -0.3958333333    -0.2083333333    -0.5000000000 1
   -0.3888888889    -0.2222222222    -0.5000000000 1
   -0.3819444444    -0.2361111111    -0.5000000000 1
   -0.3750000000    -0.2500000000    -0.5000000000 1
   -0.3680555556    -0.2638888889    -0.5000000000 1
   -0.3611111111    -0.2777777778    -0.5000000000 1
   -0.3541666667    -0.2916666667    -0.5000000000 1
   -0.3472222222    -0.3055555556    -0.5000000000 1
   -0.3402777778    -0.3194444444    -0.5000000000 1
   -0.3333333333    -0.3333333333    -0.5000000000 1
   -0.3266666667    -0.3266666667    -0.5000000000 1
   -0.3200000000    -0.3200000000    -0.5000000000 1
   -0.3133333333    -0.3133333333    -0.5000000000 1
   -0.3066666667    -0.3066666667    -0.5000000000 1
   -0.3000000000    -0.3000000000    -0.5000000000 1
   -0.2933333333    -0.2933333333    -0.5000000000 1
   -0.2866666667    -0.2866666667    -0.5000000000 1
   -0.2800000000    -0.2800000000    -0.5000000000 1
   -0.2733333333    -0.2733333333    -0.5000000000 1
   -0.2666666667    -0.2666666667    -0.5000000000 1
   -0.2600000000    -0.2600000000    -0.5000000000 1
   -0.2533333333    -0.2533333333    -0.5000000000 1
   -0.2466666667    -0.2466666667    -0.5000000000 1
   -0.2400000000    -0.2400000000    -0.5000000000 1
   -0.2333333333    -0.2333333333    -0.5000000000 1
   -0.2266666667    -0.2266666667    -0.5000000000 1
   -0.2200000000    -0.2200000000    -0.5000000000 1
   -0.2133333333    -0.2133333333    -0.5000000000 1
   -0.2066666667    -0.2066666667    -0.5000000000 1
   -0.2000000000    -0.2000000000    -0.5000000000 1
   -0.1933333333    -0.1933333333    -0.5000000000 1
   -0.1866666667    -0.1866666667    -0.5000000000 1
   -0.1800000000    -0.1800000000    -0.5000000000 1
   -0.1733333333    -0.1733333333    -0.5000000000 1
   -0.1666666667    -0.1666666667    -0.5000000000 1
   -0.1600000000    -0.1600000000    -0.5000000000 1
   -0.1533333333    -0.1533333333    -0.5000000000 1
   -0.1466666667    -0.1466666667    -0.5000000000 1
   -0.1400000000    -0.1400000000    -0.5000000000 1
   -0.1333333333    -0.1333333333    -0.5000000000 1
   -0.1266666667    -0.1266666667    -0.5000000000 1
   -0.1200000000    -0.1200000000    -0.5000000000 1
   -0.1133333333    -0.1133333333    -0.5000000000 1
   -0.1066666667    -0.1066666667    -0.5000000000 1
   -0.1000000000    -0.1000000000    -0.5000000000 1
   -0.0933333333    -0.0933333333    -0.5000000000 1
   -0.0866666667    -0.0866666667    -0.5000000000 1
   -0.0800000000    -0.0800000000    -0.5000000000 1
   -0.0733333333    -0.0733333333    -0.5000000000 1
   -0.0666666667    -0.0666666667    -0.5000000000 1
   -0.0600000000    -0.0600000000    -0.5000000000 1
   -0.0533333333    -0.0533333333    -0.5000000000 1
   -0.0466666667    -0.0466666667    -0.5000000000 1
   -0.0400000000    -0.0400000000    -0.5000000000 1
   -0.0333333333    -0.0333333333    -0.5000000000 1
   -0.0266666667    -0.0266666667    -0.5000000000 1
   -0.0200000000    -0.0200000000    -0.5000000000 1
   -0.0133333333    -0.0133333333    -0.5000000000 1
   -0.0066666667    -0.0066666667    -0.5000000000 1
   -0.0000000000    -0.0000000000    -0.5000000000 1
   -0.5000000000     0.0000000000    -0.5000000000 1
   -0.5000000000     0.0000000000    -0.3750000000 1
   -0.5000000000     0.0000000000    -0.2500000000 1
   -0.5000000000     0.0000000000    -0.1250000000 1
   -0.5000000000     0.0000000000     0.0000000000 1
   -0.3333333333    -0.3333333333    -0.5000000000 1
   -0.3333333333    -0.3333333333    -0.3750000000 1
   -0.3333333333    -0.3333333333    -0.2500000000 1
   -0.3333333333    -0.3333333333    -0.1250000000 1
   -0.3333333333    -0.3333333333     0.0000000000 1
